decision_x1=[0,4];
decision_x2=[0,4];
decision_x3=[0,4];
decision_x4=[0,4];
decision_x5=[0,4];
decision_x6=[0,4];
random_y1=[0,4];
random_y2=[0,4];
random_y3=[0,4];
constraint_x3_x1=[
0,1,9.3|
0,2,2.7|
0,3,0.37|
0,4,9.3|
1,0,9|
1,2,9.5|
1,3,9.2|
1,4,7.1|
2,0,6|
2,1,4.4|
2,3,6.8|
2,4,4.2|
3,0,4.7|
3,1,1.4|
3,2,0.84|
3,4,0.24|
4,0,5.2|
4,1,6.8|
4,2,0.94|
4,3,6.1|
];
constraint_x3_x2=[
0,1,0.28|
0,2,6.6|
0,3,7.6|
0,4,6.7|
1,0,10|
1,2,2|
1,3,0.18|
1,4,3.9|
2,0,1.4|
2,1,5.9|
2,3,0.36|
2,4,5.8|
3,0,7.7|
3,1,2.3|
3,2,3.1|
3,4,1|
4,0,8.8|
4,1,1|
4,2,4.7|
4,3,5.1|
];
constraint_x4_x1=[
0,1,3.5|
0,2,8|
0,3,1.3|
0,4,5.9|
1,0,9.2|
1,2,7.8|
1,3,5.7|
1,4,4.8|
2,0,9.6|
2,1,4.2|
2,3,1.1|
2,4,7.4|
3,0,7.4|
3,1,8.1|
3,2,2|
3,4,1.1|
4,0,1.4|
4,1,6.1|
4,2,7.5|
4,3,0.16|
];
constraint_x5_x1=[
0,1,6.6|
0,2,0.13|
0,3,3.7|
0,4,7.1|
1,0,8|
1,2,7.6|
1,3,2.2|
1,4,5.4|
2,0,2.2|
2,1,3.9|
2,3,4.6|
2,4,9.8|
3,0,9.9|
3,1,8.2|
3,2,5.6|
3,4,6.9|
4,0,9.7|
4,1,3.8|
4,2,5.8|
4,3,5.3|
];
constraint_x5_x4=[
0,1,3.2|
0,2,4.4|
0,3,9.1|
0,4,8.4|
1,0,7.8|
1,2,4.6|
1,3,5.2|
1,4,0.85|
2,0,3.2|
2,1,10|
2,3,0.67|
2,4,5|
3,0,2.9|
3,1,4.7|
3,2,3.8|
3,4,7.1|
4,0,2.6|
4,1,4.7|
4,2,8.4|
4,3,7.8|
];
constraint_x6_x2=[
0,1,8.6|
0,2,7|
0,3,7.9|
0,4,9.4|
1,0,0.68|
1,2,7|
1,3,6.5|
1,4,1.9|
2,0,8.2|
2,1,0.65|
2,3,1.8|
2,4,6.8|
3,0,5.7|
3,1,7.2|
3,2,0.23|
3,4,1.5|
4,0,7.1|
4,1,8.7|
4,2,6.2|
4,3,6|
];
constraint_x6_x4=[
0,1,8.7|
0,2,4.3|
0,3,9.1|
0,4,8.5|
1,0,0.8|
1,2,8.4|
1,3,4.9|
1,4,3.7|
2,0,9.1|
2,1,6.3|
2,3,0.43|
2,4,7.2|
3,0,4.8|
3,1,7.4|
3,2,1.2|
3,4,5.3|
4,0,2|
4,1,2.7|
4,2,5.2|
4,3,3.1|
];
constraint_x6_x5=[
0,1,1.8|
0,2,7.1|
0,3,3.7|
0,4,7|
1,0,3.8|
1,2,7.2|
1,3,2.5|
1,4,7.9|
2,0,9.5|
2,1,7.7|
2,3,4.4|
2,4,8|
3,0,6.3|
3,1,1.6|
3,2,7.4|
3,4,8.8|
4,0,5|
4,1,9.6|
4,2,9.2|
4,3,10|
];
constraint_x1_y1=[
0,0,5.4|
0,1,2.2|
0,2,0.38|
0,3,1.4|
0,4,0.18|
1,0,0.59|
1,1,2.5|
1,2,8.7|
1,3,3.2|
1,4,2.4|
2,0,6.1|
2,1,8.5|
2,2,2.1|
2,3,9.2|
2,4,0.85|
3,0,0.68|
3,1,5.1|
3,2,0.46|
3,3,2.3|
3,4,8.8|
4,0,5.2|
4,1,6.3|
4,2,8.5|
4,3,4.2|
4,4,2.3|
];
constraint_x2_y2=[
0,0,8.2|
0,1,5.7|
0,2,7.6|
0,3,5.6|
0,4,2.5|
1,0,6.6|
1,1,2.1|
1,2,7.1|
1,3,9.2|
1,4,3.7|
2,0,5.6|
2,1,7|
2,2,6.4|
2,3,1.5|
2,4,4.1|
3,0,9.9|
3,1,3.7|
3,2,5.5|
3,3,0.79|
3,4,0.75|
4,0,8.7|
4,1,6.6|
4,2,3.8|
4,3,6.9|
4,4,0.9|
];
constraint_x3_y3=[
0,0,7.9|
0,1,2.5|
0,2,3.4|
0,3,3.7|
0,4,7.7|
1,0,3|
1,1,4.6|
1,2,9.2|
1,3,9.8|
1,4,1.4|
2,0,9|
2,1,4.6|
2,2,4.4|
2,3,2.2|
2,4,1.1|
3,0,9.6|
3,1,8.1|
3,2,6.6|
3,3,3.1|
3,4,8|
4,0,0.23|
4,1,7.7|
4,2,6|
4,3,8.7|
4,4,6.5|
];
initial_distribution_y1=[0.35,0.15,0.011,0.12,0.37];
initial_distribution_y2=[0.27,0.1,0.12,0.26,0.24];
initial_distribution_y3=[0.33,0.093,0.14,0.15,0.29];
transition_y1=[
0.017,0.15,0.17,0.35,0.31|
0.2,0.27,0.18,0.14,0.2|
0.15,0.2,0.24,0.19,0.22|
0.18,0.17,0.32,0.2,0.13|
0.12,0.23,0.056,0.12,0.48|
];
transition_y2=[
0.21,0.19,0.22,0.16,0.21|
0.14,0.24,0.14,0.24,0.23|
0.32,0.16,0.074,0.078,0.37|
0.33,0.14,0.18,0.33,0.017|
0.18,0.31,0.28,0.078,0.15|
];
transition_y3=[
0.18,0.21,0.29,0.25,0.072|
0.13,0.28,0.29,0.18,0.13|
0.29,0.2,0.17,0.095,0.24|
0.022,0.31,0.27,0.039,0.36|
0.41,0.4,0.16,0.018,0.015|
];
